set EXER := walking jogging swimming machine indoor pushback;
param: cals tol :=
walking  100 5
jogging  200 2
swimming 300 3
machine  150 3.5
indoor   300 3
pushback 500 0.5 ;

param cal_target := 2000 ;
